\ENCODING=ISO-8859-1
\Problem name: ilog.cplex

Minimize
 obj: 42 x1 + 35.4 x2 + 42 x3 + 44 x4 + 45 x5 + 35.4 x6 + 42 x7 + 42 x8 + 42 x9
      + 42 x10 + 42 x11 + 27.1 x12 + 78.2 x13 + 78.2 x14 + 80.2 x15 + 80.2 x16
      + 80.2 x17 + 86.05 x18 + 86.05 x19 + 86.05 x20 + 87.55 x21 + 87.55 x22
      + 94.6 x23 + 95.1 x24 + 63.25 x25 + 63.25 x26 + 65.25 x27 + 65.25 x28
      + 65.25 x29 + 66.75 x30 + 66.75 x31 + 86 x32 + 86 x33 + 86 x34 + 87.5 x35
      + 87.5 x36 + 72.65 x37 + 73.8 x38 + 74.25 x39 + 75.8 x40 + 77.3 x41
      + 66.7 x42 + 66.7 x43 + 66.7 x44 + 66.7 x45 + 66.7 x46 + 66.7 x47
      + 66.7 x48 + 66.7 x49 + 56.45 x50 + 75.7 x51 + 62.35 x52 + 56.4 x53
      + 56.4 x54 + 56.4 x55 + 42.8 x56 + 42.8 x57 + 41.2 x58 + 41.2 x59
      + 57.8 x60 + 56.2 x61 + 56.2 x62 + 73.8 x63 + 73.8 x64 + 80.95 x65
      + 95.9 x66 + 93.1 x67 + 94.6 x68 + 84.4 x69 + 96.1 x70 + 81.15 x71
      + 96.1 x72 + 81.15 x73 + 81.65 x74 + 96.6 x75 + 83.1 x76 + 83.1 x77
      + 83.15 x78 + 98.1 x79 + 83.15 x80 + 98.1 x81 + 98.1 x82 + 83.15 x83
      + 84.6 x84 + 84.6 x85 + 84.6 x86 + 84.6 x87 + 84.6 x88 + 102.4 x89
      + 102.45 x90 + 103.9 x91 + 103.9 x92 + 103.9 x93 + 103.95 x94
      + 103.95 x95 + 103.95 x96 + 105.4 x97 + 105.4 x98 + 105.45 x99
      + 105.45 x100 + 75.3 x101 + 60.35 x102 + 77.3 x103 + 62.35 x104
      + 63.8 x105 + 63.8 x106 + 63.8 x107 + 63.8 x108 + 63.8 x109 + 83.1 x110
      + 84.6 x111 + 74.1 x112 + 65.9 x113 + 65.9 x114 + 67.9 x115 + 69.4 x116
      + 85.2 x117 + 76.5 x118 + 54.45 x119 + 76.55 x120 + 86.7 x121 + 87.2 x122
      + 67.4 x123 + 65.9 x124 + 65.9 x125 + 65.9 x126 + 67.4 x127 + 55.9 x128
      + 64.9 x129 + 66.4 x130 + 73.75 x131 + 52.45 x132 + 52.45 x133
      + 69.4 x134 + 51.45 x135 + 85.2 x136 + 75.2 x137 + 75.2 x138 + 55.9 x139
      + 55.9 x140 + 76.5 x141 + 54.45 x142 + 76.5 x143 + 84.2 x144 + 54.9 x145
      + 86.7 x146 + 75.5 x147 + 75.5 x148 + 66.2 x149 + 55.9 x150 + 55.9 x151
      + 55.9 x152 + 55.9 x153 + 54.9 x154 + 54.9 x155 + 42.3 x156 + 42.3 x157
      + 41.3 x158 + 75.2 x159 + 75.2 x160 + 75.2 x161 + 75.2 x162 + 62.9 x163
      + 62.9 x164 + 49.3 x165 + 49.3 x166 + 62.9 x167 + 62.9 x168 + 62.9 x169
      + 51 x170 + 51 x171 + 73.2 x172 + 73.2 x173 + 62.9 x174 + 62.9 x175
      + 62.9 x176 + 62.9 x177 + 82.2 x178 + 82.2 x179 + 82.2 x180 + 70.8 x181
      + 70.8 x182 + 70.8 x183 + 70.8 x184 + 70.8 x185 + 83.7 x186 + 83.7 x187
      + 81.1 x188 + 81.1 x189 + 70.8 x190 + 70.8 x191 + 70.8 x192 + 70.8 x193
      + 90.1 x194 + 90.1 x195 + 90.1 x196 + 91.6 x197 + 72.6 x198 + 70.6 x199
      + 70.6 x200 + 52 x201 + 50 x202 + 38.55 x203 + 38.55 x204 + 75.4 x205
      + 75.4 x206 + 75.4 x207 + 53.5 x208 + 54.8 x209 + 54.8 x210 + 41.2 x211
      + 41.2 x212 + 66.4 x213 + 66.4 x214 + 85.7 x215 + 87.2 x216 + 72.8 x217
      + 72.8 x218 + 79.35 x219 + 96.9 x220 + 96.9 x221 + 81.95 x222 + 94.9 x223
      + 94.9 x224 + 81.95 x225 + 79.95 x226 + 79.95 x227 + 79.95 x228
      + 83.4 x229 + 83.4 x230 + 96.9 x231 + 81.95 x232 + 67.9 x233 + 52.95 x234
      + 54.95 x235 + 82.8 x236 + 82.8 x237 + 92.1 x238 + 83.4 x239 + 83.4 x240
      + 83.4 x241 + 83.4 x242 + 62 x243 + 56.4 x244 + 95.6 x245 + 95.6 x246
      + 80.65 x247 + 80.65 x248 + 93.6 x249 + 102.7 x250 + 102.7 x251
      + 102.75 x252 + 62 x253 + 82.1 x254 + 82.1 x255 + 95.1 x256 + 95.1 x257
      + 95.1 x258 + 80.15 x259 + 80.15 x260 + 80.15 x261 + 56.4 x262
Subject To
 c1:  x1 + x58 + x59 + x205 + x206 + x207 + x209 + x210 + x211 + x212 + x219
      + x236 + x237 + x243 + x253 >= 1
 c2:  x2 + x58 + x59 + x60 + x61 + x62 + x219 + x236 + x237 + x243 + x253 >= 1
 c3:  x3 + x61 + x62 + x129 + x130 + x135 + x144 + x145 + x147 + x148 + x154
      + x155 + x158 + x163 + x164 + x165 + x166 + x167 + x168 + x169 + x170
      + x171 + x172 + x173 + x174 + x175 + x176 + x177 + x178 + x179 + x180
      + x181 + x182 + x183 + x184 + x185 + x186 + x187 + x188 + x189 + x190
      + x191 + x192 + x193 + x194 + x195 + x196 + x197 + x198 + x199 + x200
      + x201 + x202 + x203 + x204 + x208 >= 1
 c4:  x4 + x60 + x63 + x64 + x65 + x66 + x67 + x68 + x69 + x70 + x71 + x72
      + x73 + x74 + x75 + x76 + x77 + x78 + x79 + x80 + x81 + x82 + x83 + x84
      + x85 + x86 + x87 + x88 + x89 + x90 + x91 + x92 + x93 + x94 + x95 + x96
      + x97 + x98 + x99 + x100 + x101 + x102 + x103 + x104 + x105 + x106 + x107
      + x108 + x109 + x110 + x111 + x112 + x113 + x114 + x115 + x116 + x117
      + x118 + x119 + x120 + x121 + x122 + x123 + x124 + x125 + x126 + x127
      + x128 + x131 + x132 + x133 + x134 + x136 + x137 + x138 + x139 + x140
      + x141 + x142 + x143 + x146 + x149 + x150 + x151 + x152 + x153 + x156
      + x157 + x159 + x160 + x161 + x162 + x163 + x164 + x165 + x166 + x167
      + x168 + x169 + x170 + x171 + x172 + x173 + x174 + x175 + x176 + x177
      + x178 + x179 + x180 + x181 + x182 + x183 + x184 + x185 + x186 + x187
      + x188 + x189 + x190 + x191 + x192 + x193 + x194 + x195 + x196 + x197
      >= 1
 c5:  x5 + x13 + x14 + x15 + x16 + x17 + x18 + x19 + x20 + x21 + x22 + x23
      + x24 + x25 + x26 + x27 + x28 + x29 + x30 + x31 + x32 + x33 + x34 + x35
      + x36 + x37 + x38 + x39 + x40 + x41 + x42 + x43 + x44 + x45 + x46 + x47
      + x48 + x49 + x50 + x51 + x52 + x53 + x54 + x55 + x56 + x57 + x213 + x214
      + x215 + x216 + x217 + x218 + x220 + x221 + x222 + x223 + x224 + x225
      + x226 + x227 + x228 + x229 + x230 + x231 + x232 + x233 + x234 + x235
      + x238 + x239 + x240 + x241 + x242 + x244 + x245 + x246 + x247 + x248
      + x249 + x250 + x251 + x252 + x254 + x255 + x256 + x257 + x258 + x259
      + x260 + x261 + x262 >= 1
 c6:  x6 + x13 + x14 + x15 + x16 + x17 + x18 + x19 + x20 + x21 + x22 + x23
      + x24 + x25 + x26 + x27 + x28 + x29 + x30 + x31 + x32 + x33 + x34 + x35
      + x36 + x37 + x38 + x39 + x40 + x41 + x42 + x43 + x44 + x45 + x46 + x47
      + x48 + x49 + x50 + x51 + x52 + x53 + x54 + x55 + x56 + x57 + x113 + x114
      + x115 + x116 + x117 + x118 + x119 + x120 + x121 + x122 + x123 + x124
      + x125 + x126 + x127 + x128 + x129 + x130 + x131 + x132 + x133 + x134
      + x135 + x136 + x137 + x138 + x139 + x140 + x141 + x142 + x143 + x144
      + x145 + x146 + x147 + x148 + x149 + x150 + x151 + x152 + x153 + x154
      + x155 + x156 + x157 + x158 + x159 + x160 + x161 + x162 + x163 + x164
      + x165 + x166 + x167 + x168 + x169 + x172 + x173 + x174 + x175 + x176
      + x177 + x178 + x179 + x180 + x186 + x187 + x205 + x206 + x207 + x209
      + x210 + x211 + x212 + x213 + x214 + x215 + x216 + x233 + x234 + x235
      + x244 + x262 >= 1
 c7:  x7 + x13 + x14 + x15 + x16 + x17 + x18 + x19 + x20 + x21 + x22 + x23
      + x24 + x25 + x26 + x27 + x28 + x29 + x30 + x31 + x32 + x33 + x34 + x35
      + x36 + x37 + x38 + x40 + x41 + x42 + x43 + x44 + x45 + x46 + x47 + x48
      + x49 + x52 + x53 + x54 + x65 + x66 + x69 + x112 + x118 + x120 + x141
      + x143 + x147 + x148 + x149 + x172 + x173 + x176 + x177 + x188 + x189
      + x192 + x193 + x198 + x199 + x200 + x205 + x206 + x207 + x220 + x221
      + x222 + x223 + x224 + x225 + x226 + x227 + x228 + x229 + x230 + x231
      + x232 + x239 + x240 + x241 + x242 + x250 + x251 + x252 >= 1
 c8:  x8 + x13 + x14 + x21 + x22 + x23 + x25 + x26 + x35 + x36 + x38 + x48
      + x49 + x63 + x64 + x65 + x66 + x67 + x68 + x69 + x70 + x71 + x72 + x73
      + x78 + x79 + x80 + x81 + x82 + x83 + x84 + x85 + x86 + x87 + x88 + x91
      + x92 + x93 + x94 + x95 + x96 + x97 + x98 + x99 + x100 + x101 + x102
      + x107 + x108 + x111 + x113 + x114 + x117 + x121 + x123 + x124 + x125
      + x126 + x127 + x129 + x130 + x132 + x133 + x135 + x136 + x143 + x144
      + x146 + x148 + x152 + x153 + x155 + x174 + x175 + x186 + x187 + x190
      + x191 + x197 + x199 + x200 + x202 + x213 + x214 + x215 + x216 + x217
      + x218 + x219 + x223 + x224 + x226 + x227 + x228 + x231 + x232 + x233
      + x234 + x236 + x237 + x238 + x239 + x240 + x241 + x242 + x249 + x253
      + x256 + x257 + x258 + x259 + x260 + x261 + x262 >= 1
 c9:  x9 + x15 + x17 + x19 + x20 + x24 + x27 + x29 + x33 + x34 + x39 + x40
      + x43 + x45 + x51 + x63 + x64 + x65 + x66 + x67 + x68 + x69 + x70 + x73
      + x74 + x75 + x76 + x77 + x78 + x79 + x82 + x83 + x84 + x86 + x87 + x89
      + x90 + x92 + x93 + x94 + x95 + x97 + x99 + x103 + x104 + x106 + x109
      + x110 + x112 + x115 + x122 + x124 + x125 + x126 + x129 + x134 + x136
      + x141 + x142 + x144 + x146 + x147 + x150 + x151 + x154 + x159 + x160
      + x161 + x162 + x167 + x168 + x178 + x180 + x183 + x185 + x194 + x196
      + x198 + x200 + x201 + x205 + x206 + x213 + x214 + x215 + x216 + x217
      + x218 + x219 + x220 + x221 + x222 + x223 + x224 + x225 + x226 + x227
      + x229 + x230 + x231 + x232 + x235 + x236 + x237 + x238 + x239 + x240
      + x241 + x243 + x244 + x245 + x246 + x247 + x248 + x249 + x250 + x251
      + x252 + x254 + x255 + x257 + x258 + x260 + x261 >= 1
 c10: x10 + x16 + x18 + x28 + x32 + x46 + x71 + x72 + x74 + x75 + x76 + x77
      + x80 + x81 + x85 + x88 + x89 + x90 + x91 + x96 + x98 + x100 + x105
      + x113 + x114 + x115 + x116 + x117 + x118 + x119 + x120 + x121 + x122
      + x128 + x131 + x137 + x138 + x149 + x169 + x179 + x184 + x195 + x207
      + x220 + x221 + x222 + x225 + x228 + x229 + x230 + x242 + x245 + x246
      + x247 + x248 + x250 + x251 + x252 + x254 + x255 + x256 + x259 >= 1
 c11: x11 + x13 + x14 + x15 + x16 + x17 + x18 + x19 + x20 + x21 + x22 + x23
      + x24 + x30 + x31 + x32 + x33 + x34 + x35 + x36 + x37 + x39 + x41 + x42
      + x44 + x47 + x50 + x51 + x55 + x66 + x67 + x68 + x70 + x72 + x75 + x79
      + x81 + x82 + x89 + x90 + x91 + x92 + x93 + x94 + x95 + x96 + x97 + x98
      + x99 + x100 + x101 + x103 + x110 + x111 + x116 + x117 + x118 + x120
      + x121 + x122 + x123 + x127 + x130 + x131 + x134 + x136 + x137 + x138
      + x139 + x140 + x141 + x143 + x144 + x145 + x146 + x147 + x148 + x159
      + x160 + x161 + x162 + x163 + x164 + x172 + x173 + x178 + x179 + x180
      + x181 + x182 + x186 + x187 + x188 + x189 + x194 + x195 + x196 + x197
      + x198 + x199 + x205 + x206 + x207 + x208 + x209 + x210 + x215 + x216
      + x220 + x221 + x223 + x224 + x231 + x233 + x238 + x245 + x246 + x249
      + x250 + x251 + x252 + x256 + x257 + x258 >= 1
 c12: x12 + x13 + x14 + x15 + x16 + x17 + x18 + x19 + x20 + x21 + x22 + x23
      + x24 + x25 + x26 + x27 + x28 + x29 + x30 + x31 + x37 + x38 + x39 + x40
      + x41 + x50 + x52 + x63 + x64 + x65 + x66 + x67 + x68 + x70 + x71 + x72
      + x73 + x74 + x75 + x78 + x79 + x80 + x81 + x82 + x83 + x90 + x94 + x95
      + x96 + x99 + x100 + x101 + x102 + x103 + x104 + x113 + x114 + x115
      + x116 + x117 + x119 + x120 + x121 + x122 + x123 + x124 + x125 + x126
      + x127 + x129 + x130 + x131 + x132 + x133 + x134 + x135 + x136 + x142
      + x144 + x146 + x163 + x164 + x165 + x166 + x167 + x168 + x169 + x170
      + x171 + x172 + x173 + x174 + x175 + x176 + x177 + x178 + x179 + x180
      + x181 + x182 + x183 + x184 + x185 + x186 + x187 + x188 + x189 + x190
      + x191 + x192 + x193 + x194 + x195 + x196 + x197 + x198 + x199 + x200
      + x201 + x202 + x203 + x204 + x208 + x213 + x214 + x215 + x216 + x217
      + x218 + x219 + x220 + x221 + x222 + x223 + x224 + x225 + x226 + x227
      + x228 + x231 + x232 + x233 + x234 + x235 + x238 + x245 + x246 + x247
      + x248 + x249 + x252 + x256 + x257 + x258 + x259 + x260 + x261 >= 1
 c13: x1 + x2 + x3 + x4 + x58 + x59 + x60 + x61 + x62 >= 1
 c14: x5 + x6 + x7 + x8 + x9 + x11 + x12 + x13 + x15 + x19 + x22 + x23 + x24
      + x26 + x27 + x30 + x34 + x36 + x37 + x38 + x39 + x40 + x41 + x44 + x45
      + x47 + x49 + x50 + x51 + x52 + x53 + x55 + x57 + x63 + x64 + x65 + x66
      + x67 + x68 + x69 + x70 + x73 + x82 + x83 + x84 + x86 + x93 + x95 + x97
      + x99 + x101 + x102 + x103 + x104 + x108 + x109 + x110 + x111 + x112
      + x123 + x124 + x125 + x129 + x130 + x132 + x134 + x135 + x136 + x140
      + x141 + x142 + x143 + x144 + x145 + x146 + x147 + x148 + x151 + x153
      + x154 + x155 + x157 + x158 + x160 + x161 + x163 + x166 + x167 + x171
      + x173 + x174 + x177 + x180 + x182 + x185 + x187 + x188 + x190 + x192
      + x194 + x197 + x198 + x199 + x200 + x201 + x202 + x203 + x205 + x208
      + x209 + x211 + x213 + x214 + x215 + x216 + x217 + x218 + x219 + x224
      + x226 + x231 + x232 + x233 + x234 + x235 + x236 + x237 + x238 + x240
      + x241 + x243 + x244 + x249 + x253 + x257 + x260 + x262 >= 1
 c15: x10 + x14 + x16 + x17 + x18 + x20 + x21 + x25 + x28 + x29 + x31 + x32
      + x33 + x35 + x42 + x43 + x46 + x48 + x54 + x56 + x71 + x72 + x74 + x75
      + x76 + x77 + x78 + x79 + x80 + x81 + x85 + x87 + x88 + x89 + x90 + x91
      + x92 + x94 + x96 + x98 + x100 + x105 + x106 + x107 + x113 + x114 + x115
      + x116 + x117 + x118 + x119 + x120 + x121 + x122 + x126 + x127 + x128
      + x131 + x133 + x137 + x138 + x139 + x149 + x150 + x152 + x156 + x159
      + x162 + x164 + x165 + x168 + x169 + x170 + x172 + x175 + x176 + x178
      + x179 + x181 + x183 + x184 + x186 + x189 + x191 + x193 + x195 + x196
      + x204 + x206 + x207 + x210 + x212 + x220 + x221 + x222 + x223 + x225
      + x227 + x228 + x229 + x230 + x239 + x242 + x245 + x246 + x247 + x248
      + x250 + x251 + x252 + x254 + x255 + x256 + x258 + x259 + x261 >= 1
Bounds
 0 <= x1 <= 1
 0 <= x2 <= 1
 0 <= x3 <= 1
 0 <= x4 <= 1
 0 <= x5 <= 1
 0 <= x6 <= 1
 0 <= x7 <= 1
 0 <= x8 <= 1
 0 <= x9 <= 1
 0 <= x10 <= 1
 0 <= x11 <= 1
 0 <= x12 <= 1
 0 <= x13 <= 1
 0 <= x14 <= 1
 0 <= x15 <= 1
 0 <= x16 <= 1
 0 <= x17 <= 1
 0 <= x18 <= 1
 0 <= x19 <= 1
 0 <= x20 <= 1
 0 <= x21 <= 1
 0 <= x22 <= 1
 0 <= x23 <= 1
 0 <= x24 <= 1
 0 <= x25 <= 1
 0 <= x26 <= 1
 0 <= x27 <= 1
 0 <= x28 <= 1
 0 <= x29 <= 1
 0 <= x30 <= 1
 0 <= x31 <= 1
 0 <= x32 <= 1
 0 <= x33 <= 1
 0 <= x34 <= 1
 0 <= x35 <= 1
 0 <= x36 <= 1
 0 <= x37 <= 1
 0 <= x38 <= 1
 0 <= x39 <= 1
 0 <= x40 <= 1
 0 <= x41 <= 1
 0 <= x42 <= 1
 0 <= x43 <= 1
 0 <= x44 <= 1
 0 <= x45 <= 1
 0 <= x46 <= 1
 0 <= x47 <= 1
 0 <= x48 <= 1
 0 <= x49 <= 1
 0 <= x50 <= 1
 0 <= x51 <= 1
 0 <= x52 <= 1
 0 <= x53 <= 1
 0 <= x54 <= 1
 0 <= x55 <= 1
 0 <= x56 <= 1
 0 <= x57 <= 1
 0 <= x58 <= 1
 0 <= x59 <= 1
 0 <= x60 <= 1
 0 <= x61 <= 1
 0 <= x62 <= 1
 0 <= x63 <= 1
 0 <= x64 <= 1
 0 <= x65 <= 1
 0 <= x66 <= 1
 0 <= x67 <= 1
 0 <= x68 <= 1
 0 <= x69 <= 1
 0 <= x70 <= 1
 0 <= x71 <= 1
 0 <= x72 <= 1
 0 <= x73 <= 1
 0 <= x74 <= 1
 0 <= x75 <= 1
 0 <= x76 <= 1
 0 <= x77 <= 1
 0 <= x78 <= 1
 0 <= x79 <= 1
 0 <= x80 <= 1
 0 <= x81 <= 1
 0 <= x82 <= 1
 0 <= x83 <= 1
 0 <= x84 <= 1
 0 <= x85 <= 1
 0 <= x86 <= 1
 0 <= x87 <= 1
 0 <= x88 <= 1
 0 <= x89 <= 1
 0 <= x90 <= 1
 0 <= x91 <= 1
 0 <= x92 <= 1
 0 <= x93 <= 1
 0 <= x94 <= 1
 0 <= x95 <= 1
 0 <= x96 <= 1
 0 <= x97 <= 1
 0 <= x98 <= 1
 0 <= x99 <= 1
 0 <= x100 <= 1
 0 <= x101 <= 1
 0 <= x102 <= 1
 0 <= x103 <= 1
 0 <= x104 <= 1
 0 <= x105 <= 1
 0 <= x106 <= 1
 0 <= x107 <= 1
 0 <= x108 <= 1
 0 <= x109 <= 1
 0 <= x110 <= 1
 0 <= x111 <= 1
 0 <= x112 <= 1
 0 <= x113 <= 1
 0 <= x114 <= 1
 0 <= x115 <= 1
 0 <= x116 <= 1
 0 <= x117 <= 1
 0 <= x118 <= 1
 0 <= x119 <= 1
 0 <= x120 <= 1
 0 <= x121 <= 1
 0 <= x122 <= 1
 0 <= x123 <= 1
 0 <= x124 <= 1
 0 <= x125 <= 1
 0 <= x126 <= 1
 0 <= x127 <= 1
 0 <= x128 <= 1
 0 <= x129 <= 1
 0 <= x130 <= 1
 0 <= x131 <= 1
 0 <= x132 <= 1
 0 <= x133 <= 1
 0 <= x134 <= 1
 0 <= x135 <= 1
 0 <= x136 <= 1
 0 <= x137 <= 1
 0 <= x138 <= 1
 0 <= x139 <= 1
 0 <= x140 <= 1
 0 <= x141 <= 1
 0 <= x142 <= 1
 0 <= x143 <= 1
 0 <= x144 <= 1
 0 <= x145 <= 1
 0 <= x146 <= 1
 0 <= x147 <= 1
 0 <= x148 <= 1
 0 <= x149 <= 1
 0 <= x150 <= 1
 0 <= x151 <= 1
 0 <= x152 <= 1
 0 <= x153 <= 1
 0 <= x154 <= 1
 0 <= x155 <= 1
 0 <= x156 <= 1
 0 <= x157 <= 1
 0 <= x158 <= 1
 0 <= x159 <= 1
 0 <= x160 <= 1
 0 <= x161 <= 1
 0 <= x162 <= 1
 0 <= x163 <= 1
 0 <= x164 <= 1
 0 <= x165 <= 1
 0 <= x166 <= 1
 0 <= x167 <= 1
 0 <= x168 <= 1
 0 <= x169 <= 1
 0 <= x170 <= 1
 0 <= x171 <= 1
 0 <= x172 <= 1
 0 <= x173 <= 1
 0 <= x174 <= 1
 0 <= x175 <= 1
 0 <= x176 <= 1
 0 <= x177 <= 1
 0 <= x178 <= 1
 0 <= x179 <= 1
 0 <= x180 <= 1
 0 <= x181 <= 1
 0 <= x182 <= 1
 0 <= x183 <= 1
 0 <= x184 <= 1
 0 <= x185 <= 1
 0 <= x186 <= 1
 0 <= x187 <= 1
 0 <= x188 <= 1
 0 <= x189 <= 1
 0 <= x190 <= 1
 0 <= x191 <= 1
 0 <= x192 <= 1
 0 <= x193 <= 1
 0 <= x194 <= 1
 0 <= x195 <= 1
 0 <= x196 <= 1
 0 <= x197 <= 1
 0 <= x198 <= 1
 0 <= x199 <= 1
 0 <= x200 <= 1
 0 <= x201 <= 1
 0 <= x202 <= 1
 0 <= x203 <= 1
 0 <= x204 <= 1
 0 <= x205 <= 1
 0 <= x206 <= 1
 0 <= x207 <= 1
 0 <= x208 <= 1
 0 <= x209 <= 1
 0 <= x210 <= 1
 0 <= x211 <= 1
 0 <= x212 <= 1
 0 <= x213 <= 1
 0 <= x214 <= 1
 0 <= x215 <= 1
 0 <= x216 <= 1
 0 <= x217 <= 1
 0 <= x218 <= 1
 0 <= x219 <= 1
 0 <= x220 <= 1
 0 <= x221 <= 1
 0 <= x222 <= 1
 0 <= x223 <= 1
 0 <= x224 <= 1
 0 <= x225 <= 1
 0 <= x226 <= 1
 0 <= x227 <= 1
 0 <= x228 <= 1
 0 <= x229 <= 1
 0 <= x230 <= 1
 0 <= x231 <= 1
 0 <= x232 <= 1
 0 <= x233 <= 1
 0 <= x234 <= 1
 0 <= x235 <= 1
 0 <= x236 <= 1
 0 <= x237 <= 1
 0 <= x238 <= 1
 0 <= x239 <= 1
 0 <= x240 <= 1
 0 <= x241 <= 1
 0 <= x242 <= 1
 0 <= x243 <= 1
 0 <= x244 <= 1
 0 <= x245 <= 1
 0 <= x246 <= 1
 0 <= x247 <= 1
 0 <= x248 <= 1
 0 <= x249 <= 1
 0 <= x250 <= 1
 0 <= x251 <= 1
 0 <= x252 <= 1
 0 <= x253 <= 1
 0 <= x254 <= 1
 0 <= x255 <= 1
 0 <= x256 <= 1
 0 <= x257 <= 1
 0 <= x258 <= 1
 0 <= x259 <= 1
 0 <= x260 <= 1
 0 <= x261 <= 1
 0 <= x262 <= 1
End
